
--- Job TS_EV.gms Start 04/30/25 20:37:07 49.4.0 6fb2fe8b WEX-WEI x86 64bit/MS Windows
--- Applying:
    C:\GAMS\49\gmsprmNT.txt
--- GAMS Parameters defined
    Input D:\gams\Project\TS\TS_EV.gms
    PageSize 0
    ScrDir D:\gams\Project\TS\225a\
    SysDir C:\GAMS\49\
    LogOption 3
    ErrMsg 1
    ErrorLog 99
    IDE 1
    LstTitleLeftAligned 1
Licensee: Academic User                                  G250418+0003Ac-GEN
          xskurl02@vutbr.cz                                       CLA109379
          C:\GAMS\49\gamslice.txt
          node:42640501 v:2                                                
          Community license for demonstration and instructional purposes only
System information: 8 physical cores and 32 Gb memory detected
GAMS 49.4.0   Copyright (C) 1987-2025 GAMS Development. All rights reserved
--- Starting compilation
--- TS_EV.gms(187) 3 Mb
--- Starting execution: elapsed 0:00:00.013
--- TS_EV.gms(75) 4 Mb
--- Generating LP model vyroba
--- TS_EV.gms(77) 4 Mb
---   15 rows  12 columns  45 non-zeroes
--- Range statistics (absolute non-zero finite values)
--- RHS       [min, max] : [ 2.000E+01, 4.500E+03] - Zero values observed as well
--- Bound     [min, max] : [ 1.000E+03, 1.000E+03] - Zero values observed as well
--- Matrix    [min, max] : [ 1.000E+00, 1.500E+02]
--- Executing CPLEX (Solvelink=2): elapsed 0:00:00.024

IBM ILOG CPLEX   49.4.0 6fb2fe8b Apr 6, 2025           WEI x86 64bit/MS Window

*** This solver runs with a community license. No commercial use.
--- GMO setup time: 0.00s
--- GMO memory 0.50 Mb (peak 0.50 Mb)
--- Dictionary memory 0.00 Mb
--- Cplex 22.1.2.0 link memory 0.00 Mb (peak 0.00 Mb)
--- Starting Cplex

Version identifier: 22.1.2.0 | 2024-11-25 | 0edbb82fd
CPXPARAM_Advance                                 0
CPXPARAM_Simplex_Display                         2
CPXPARAM_MIP_Display                             4
CPXPARAM_MIP_Pool_Capacity                       0
CPXPARAM_MIP_Tolerances_AbsMIPGap                0
Tried aggregator 1 time.
LP Presolve eliminated 9 rows and 2 columns.
Reduced LP has 5 rows, 10 columns, and 22 nonzeros.
Presolve time = 0.00 sec. (0.01 ticks)
Initializing dual steep norms . . .

Iteration      Dual Objective            In Variable           Out Variable
     1           20342.535211                   x(3)                  yp(2)
     2           20092.481298                   x(1)                  yp(3)

--- LP status (1): optimal.
--- Cplex Time: 0.00sec (det. 0.02 ticks)


Optimal solution found
Objective:        20092.481298

--- Reading solution for model vyroba
--- Executing after solve: elapsed 0:00:00.066
--- TS_EV.gms(128) 4 Mb
--- Generating LP model vyroba
--- TS_EV.gms(133) 4 Mb
--- LOOPS s = 1
---   15 rows  12 columns  45 non-zeroes
--- Range statistics (absolute non-zero finite values)
--- RHS       [min, max] : [ 2.000E+01, 4.500E+03] - Zero values observed as well
--- Bound     [min, max] : [ 3.917E+01, 1.000E+03] - Zero values observed as well
--- Matrix    [min, max] : [ 1.000E+00, 1.500E+02]
--- Executing CPLEX (Solvelink=2): elapsed 0:00:00.068

IBM ILOG CPLEX   49.4.0 6fb2fe8b Apr 6, 2025           WEI x86 64bit/MS Window

*** This solver runs with a community license. No commercial use.
--- GMO setup time: 0.00s
--- GMO memory 0.50 Mb (peak 0.50 Mb)
--- Dictionary memory 0.00 Mb
--- Cplex 22.1.2.0 link memory 0.00 Mb (peak 0.00 Mb)
--- Starting Cplex

Version identifier: 22.1.2.0 | 2024-11-25 | 0edbb82fd
CPXPARAM_Advance                                 2
CPXPARAM_Simplex_Display                         2
CPXPARAM_MIP_Display                             4
CPXPARAM_MIP_Pool_Capacity                       0
CPXPARAM_MIP_Tolerances_AbsMIPGap                0
Tried aggregator 1 time.
LP Presolve eliminated 14 rows and 12 columns.
All rows and columns eliminated.
Presolve time = 0.00 sec. (0.01 ticks)

--- LP status (1): optimal.
--- Cplex Time: 0.00sec (det. 0.02 ticks)


Optimal solution found
Objective:        19489.831456

--- Reading solution for model vyroba
--- Executing after solve: elapsed 0:00:00.107
--- TS_EV.gms(128) 4 Mb
--- Generating LP model vyroba
--- TS_EV.gms(133) 4 Mb
--- LOOPS s = 2
---   15 rows  12 columns  45 non-zeroes
--- Range statistics (absolute non-zero finite values)
--- RHS       [min, max] : [ 2.000E+01, 4.500E+03] - Zero values observed as well
--- Bound     [min, max] : [ 3.917E+01, 1.000E+03] - Zero values observed as well
--- Matrix    [min, max] : [ 1.000E+00, 1.500E+02]
--- Executing CPLEX (Solvelink=2): elapsed 0:00:00.109

IBM ILOG CPLEX   49.4.0 6fb2fe8b Apr 6, 2025           WEI x86 64bit/MS Window

*** This solver runs with a community license. No commercial use.
--- GMO setup time: 0.00s
--- GMO memory 0.50 Mb (peak 0.50 Mb)
--- Dictionary memory 0.00 Mb
--- Cplex 22.1.2.0 link memory 0.00 Mb (peak 0.00 Mb)
--- Starting Cplex

Version identifier: 22.1.2.0 | 2024-11-25 | 0edbb82fd
CPXPARAM_Advance                                 2
CPXPARAM_Simplex_Display                         2
CPXPARAM_MIP_Display                             4
CPXPARAM_MIP_Pool_Capacity                       0
CPXPARAM_MIP_Tolerances_AbsMIPGap                0
Tried aggregator 1 time.
LP Presolve eliminated 14 rows and 12 columns.
All rows and columns eliminated.
Presolve time = 0.00 sec. (0.01 ticks)

--- LP status (1): optimal.
--- Cplex Time: 0.00sec (det. 0.02 ticks)


Optimal solution found
Objective:        19491.598017

--- Reading solution for model vyroba
--- Executing after solve: elapsed 0:00:00.149
--- TS_EV.gms(128) 4 Mb
--- Generating LP model vyroba
--- TS_EV.gms(133) 4 Mb
--- LOOPS s = 3
---   15 rows  12 columns  45 non-zeroes
--- Range statistics (absolute non-zero finite values)
--- RHS       [min, max] : [ 2.000E+01, 4.500E+03] - Zero values observed as well
--- Bound     [min, max] : [ 3.917E+01, 1.000E+03] - Zero values observed as well
--- Matrix    [min, max] : [ 1.000E+00, 1.500E+02]
--- Executing CPLEX (Solvelink=2): elapsed 0:00:00.151

IBM ILOG CPLEX   49.4.0 6fb2fe8b Apr 6, 2025           WEI x86 64bit/MS Window

*** This solver runs with a community license. No commercial use.
--- GMO setup time: 0.00s
--- GMO memory 0.50 Mb (peak 0.50 Mb)
--- Dictionary memory 0.00 Mb
--- Cplex 22.1.2.0 link memory 0.00 Mb (peak 0.00 Mb)
--- Starting Cplex

Version identifier: 22.1.2.0 | 2024-11-25 | 0edbb82fd
CPXPARAM_Advance                                 2
CPXPARAM_Simplex_Display                         2
CPXPARAM_MIP_Display                             4
CPXPARAM_MIP_Pool_Capacity                       0
CPXPARAM_MIP_Tolerances_AbsMIPGap                0
Tried aggregator 1 time.
LP Presolve eliminated 14 rows and 12 columns.
All rows and columns eliminated.
Presolve time = 0.00 sec. (0.01 ticks)

--- LP status (1): optimal.
--- Cplex Time: 0.02sec (det. 0.02 ticks)


Optimal solution found
Objective:        19326.045967

--- Reading solution for model vyroba
--- Executing after solve: elapsed 0:00:00.190
--- TS_EV.gms(187) 4 Mb
--- Putfile out D:\gams\Project\TS\vysledky.txt
*** Status: Normal completion
--- Job TS_EV.gms Stop 04/30/25 20:37:07 elapsed 0:00:00.191
